100
120
100
100
100
99
99
98
98
96
95
94
93
91
90
90
89
89
88
86
83
83
82
81
81
80
80
80
79
79
79
76
75
74
73
73
70
70
65
63
60
59
59
58
57
55
54
54
52
52
51
51
51
50
47
47
46
45
45
45
43
42
42
41
36
35
35
35
34
33
33
29
29
29
29
29
28
24
22
22
22
22
22
20
20
20
19
18
17
17
16
15
12
11
11
9
8
6
3
1
1
1
